50
    14    14    99     6    67    22    47    22    40    67    45    72    34    14    85    81    59    73    27    63    47    92    95    26    41    59    78    66     1     5    33    71     4   100    81    20    41    55     7    80    19    22    66    12    61    93    74    66     5   100
     9     7     3     1     9     5     9     6     5     4     1     7     7     1     2     9     3     8     1     6     5     6    10     7    10    10     8    10     8     8     5     9     6     9    10     5     3     4     3     9     6     8     3     4     4     4     8     5     3     3
   628  1678  2260   648   374  2591   692  1019  1239  1564  2502   758  1022   277  1749  2207  1794  1177   661   413  1944   915  2298   641  1815  2316  1989  2555   694   402  2226   454  2443  1767  1625  2020  2617   732  2421  1386  1499  1179  1888   358  1098  2588  2308  1243   897  2119
